100 10
515 681
370 557
639 589
900 486
552 92
686 241
356 578
575 834
606 618
289 481
725 533
529 516
703 882
472 655
591 951
646 845
357 582
722 527
540 581
524 810
611 540
609 648
255 505
699 782
543 838
452 280
747 894
722 680
426 370
786 830
579 71
782 437
455 236
416 892
419 524
565 197
693 419
381 551
606 187
495 637
212 477
359 844
842 614
433 639
847 802
677 649
789 565
649 662
574 525
559 576
902 596
660 356
615 584
849 556
887 593
130 357
898 328
354 475
228 690
391 745
578 843
957 538
708 403
214 612
446 497
543 329
828 225
589 450
439 805
603 500
348 759
529 747
412 280
752 712
332 680
554 828
720 588
655 581
881 851
453 510
534 321
452 853
711 383
460 833
428 592
590 522
634 720
457 823
622 633
531 512
443 196
532 93
717 348
745 705
561 884
741 866
613 532
522 229
133 673
522 470
